unsat
( c1008
  c1012
  c1013
  c1017
  c1018
  c1019
  c1020
  c1023
  c1027
  c1032
  c1033
  c1034
  c1036
  c104
  c1045
  c1047
  c1050
  c1052
  c1054
  c1055
  c1056
  c1057
  c1058
  c1059
  c1067
  c1071
  c1073
  c1078
  c1092
  c1106
  c1122
  c1123
  c1132
  c1133
  c1136
  c1148
  c1149
  c1156
  c1158
  c1159
  c1160
  c117
  c1175
  c1179
  c1180
  c1184
  c1185
  c1186
  c1187
  c1190
  c1199
  c1200
  c1201
  c1203
  c1212
  c1214
  c1217
  c1219
  c1221
  c1222
  c1223
  c1224
  c1225
  c1228
  c1233
  c1239
  c1245
  c1259
  c1273
  c1286
  c130
  c1303
  c1315
  c1316
  c1326
  c1342
  c1344
  c1351
  c1352
  c1353
  c1354
  c1357
  c1366
  c1367
  c1368
  c1370
  c1379
  c1384
  c1385
  c1386
  c1388
  c1389
  c1390
  c1391
  c1392
  c1403
  c1408
  c1412
  c1427
  c1432
  c1433
  c1434
  c1435
  c1437
  c144
  c156
  c177
  c18
  c188
  c19
  c192
  c197
  c21
  c215
  c223
  c224
  c243
  c257
  c271
  c284
  c297
  c299
  c311
  c313
  c314
  c315
  c316
  c323
  c324
  c344
  c346
  c355
  c359
  c364
  c365
  c366
  c368
  c377
  c382
  c384
  c386
  c387
  c388
  c389
  c390
  c391
  c394
  c406
  c410
  c424
  c438
  c451
  c462
  c464
  c466
  c48
  c480
  c481
  c488
  c490
  c491
  c509
  c511
  c513
  c521
  c522
  c526
  c531
  c532
  c533
  c535
  c54
  c544
  c549
  c55
  c551
  c553
  c554
  c555
  c556
  c557
  c558
  c568
  c570
  c577
  c591
  c605
  c609
  c618
  c629
  c631
  c632
  c634
  c647
  c648
  c657
  c658
  c659
  c660
  c661
  c663
  c676
  c678
  c679
  c681
  c688
  c689
  c693
  c698
  c699
  c700
  c702
  c713
  c716
  c718
  c720
  c721
  c722
  c723
  c724
  c725
  c732
  c741
  c744
  c758
  c76
  c772
  c776
  c785
  c798
  c799
  c801
  c806
  c814
  c815
  c822
  c824
  c825
  c826
  c827
  c828
  c830
  c845
  c846
  c848
  c851
  c856
  c857
  c860
  c865
  c866
  c867
  c869
  c878
  c880
  c883
  c885
  c887
  c888
  c889
  c890
  c891
  c892
  c898
  c90
  c902
  c905
  c911
  c925
  c939
  c952
  c965
  c969
  c981
  c982
  c989
  c991
  c992
  c993 )
